55
Coordinates from ORCA-job active_site_opt E -2560.972880712920
  Fe          1.73499997763127     -4.22900000312740     -7.14200000171456
  C           2.82761034138375     -2.43437853351996    -10.81710907899045
  N           1.90294595439474     -1.47783995524199    -10.40019819010111
  C           2.81078158209834     -3.39273736621192     -9.81830236957098
  C           1.37159322707604     -1.85796898257025     -9.20449595550470
  N           1.90437885556464     -3.02333832675125     -8.82762327977914
  C           3.60089735966225     -2.33019595522294    -12.09340124662421
  H           4.32817000312733     -3.16225999983005    -12.19180000223360
  H           4.17313052316908     -1.38030149811597    -12.14597641017907
  H           2.93255564759806     -2.36575988483809    -12.97952419280669
  H           3.38939808471805     -4.31663783014407     -9.72089646117302
  H           0.61712070150821     -1.28510990597090     -8.65471514259100
  H           1.65794027802686     -0.62657247018743    -10.91068259165397
  C           4.61034459020041     -1.83709933822320     -4.86274437621902
  N           4.16431796002960     -2.79614867239300     -3.95767025663711
  C           3.85101709274120     -2.07348685462309     -6.00580278083703
  C           3.19645567040021     -3.55171980994065     -4.53485745649650
  N           2.98005196507590     -3.13671042607389     -5.78804020973934
  C           5.62840773536000     -0.78636464522787     -4.51820453950964
  H           6.50460000970462     -1.14260999665313     -3.91847999600677
  H           5.16223322088195      0.03707681754203     -3.93472428528739
  H           6.02840644543450     -0.33704215584286     -5.44673633156249
  H           3.88711420370943     -1.55190675434182     -6.96788080480886
  H           2.72375075852926     -4.41189823483285     -4.05303212118491
  H           4.49651279639142     -2.90770116460776     -2.99792046918926
  C           3.63605780832311     -6.09297960793364     -6.80243186568572
  O           3.00696717491797     -6.13345450978441     -5.72482336370088
  O           3.18060287954858     -5.38802962747483     -7.80862349253119
  C           4.94328088172218     -6.83294459250692     -7.02894592356775
  H           5.75800000953678     -6.16372000038942     -7.39554000004507
  H           4.79080336908473     -7.60046811805389     -7.81563024441662
  H           5.26190850273719     -7.33321391807499     -6.09702599952829
  C          -0.66097930703580     -5.38435245059161     -7.91420158694996
  C           0.02566862630160     -5.49166380008748     -6.67471993299550
  C           0.05052104808057     -4.38165912921035     -5.76788463498432
  C          -0.63466603402521     -3.17834279961323     -6.12348325869546
  O          -0.64398055857625     -2.05622475091422     -5.35510848439309
  C           0.07363922896182     -1.97965715988481     -4.16200138815176
  C          -0.24765284748255     -2.78561540861645     -3.05822694791310
  C           0.48325568049624     -2.63001515424378     -1.86828393421183
  C           1.50190429028775     -1.66552652882472     -1.77941564484240
  C           1.79052945212301     -0.84884601157736     -2.88668666600055
  C           1.08124931952141     -1.00662121745530     -4.08664606660839
  C          -1.31914947572773     -3.09523596261960     -7.35157021420616
  C          -1.32831705004189     -4.19379426998603     -8.23463617572893
  H          -0.67600561525763     -6.23873530253516     -8.60500168079373
  H           0.46839983668415     -6.44490505592252     -6.35170284498266
  H           0.46890334651585     -4.50473321706510     -4.76192768325455
  H          -1.07231025880639     -3.51007608262317     -3.12462334815592
  H           0.23542960274642     -3.25430183863452     -0.99681133568711
  H           2.05358514357332     -1.53485150879765     -0.83647518897101
  H           2.57014128499067     -0.07549036396263     -2.81737294465541
  H           1.29224014260367     -0.38324246551845     -4.96619796796959
  H          -1.84684844129207     -2.16125720113041     -7.59181915265520
  H          -1.86448175744327     -4.10772334576750     -9.19106631412480
