41
motif_2His1carboxylate_Fe2_singlet q=1 m=1
Fe      0.00000      0.00000      0.00000
N       2.18000      0.00000      0.00000
C       3.79254     -0.35894     -1.84835
C       3.48425     -0.08324     -0.42864
C       4.34600      0.12183      0.62737
N       3.54143      0.33256      1.71251
C       2.24713      0.24990      1.28687
H       4.87265     -0.39254     -2.02174
H       3.36798     -1.32165     -2.14907
H       3.36787      0.42119     -2.48754
H       5.42427      0.13526      0.69652
H       3.84275      0.51641      2.65926
H       1.40461      0.37922      1.95280
N      -2.18000      0.00000      0.00000
C      -3.79254      0.91621      1.64493
C      -3.48425      0.21247      0.38147
C      -4.34600     -0.31098     -0.55832
N      -3.54143     -0.84887     -1.52404
C      -2.24713     -0.63789     -1.14524
H      -4.87265      1.00221      1.79919
H      -3.36798      0.37362      2.49513
H      -3.36787      1.92466      1.63124
H      -5.42427     -0.34526     -0.61986
H      -3.84275     -1.31817     -2.36659
H      -1.40461     -0.96798     -1.73788
O       0.00000      2.08000      0.00000
C      -0.33758      4.39814      0.22303
C       0.45840      3.21638     -0.30285
O       1.48034      3.52454     -0.97801
H      -0.68742      5.01086     -0.61317
H      -1.20811      4.06837      0.79821
H       0.29437      5.01090      0.87280
O       0.00000     -2.08000      0.00000
H       0.37705     -2.67672     -0.66387
H      -0.37705     -2.67672      0.66387
O       0.00000      0.00000      2.08000
H       0.71606     -0.26485      2.67672
H      -0.71606      0.26485      2.67672
O       0.00000      0.00000     -2.08000
H       0.71830     -0.25873     -2.67672
H      -0.71830      0.25873     -2.67672
